c description: Tseitin formula on , with even charge
c generator: CNFgen (0.9.0)
c copyright: (C) 2012-2020 Massimo Lauria <massimo.lauria@uniroma1.it>
c url: https://massimolauria.net/cnfgen
c
p cnf 30 480
1 2 3 -4 0
1 2 -3 4 0
1 -2 3 4 0
1 -2 -3 -4 0
-1 2 3 4 0
-1 2 -3 -4 0
-1 -2 3 -4 0
-1 -2 -3 4 0
1 5 6 7 8 9 10 -11 0
1 5 6 7 8 9 -10 11 0
1 5 6 7 8 -9 10 11 0
1 5 6 7 8 -9 -10 -11 0
1 5 6 7 -8 9 10 11 0
1 5 6 7 -8 9 -10 -11 0
1 5 6 7 -8 -9 10 -11 0
1 5 6 7 -8 -9 -10 11 0
1 5 6 -7 8 9 10 11 0
1 5 6 -7 8 9 -10 -11 0
1 5 6 -7 8 -9 10 -11 0
1 5 6 -7 8 -9 -10 11 0
1 5 6 -7 -8 9 10 -11 0
1 5 6 -7 -8 9 -10 11 0
1 5 6 -7 -8 -9 10 11 0
1 5 6 -7 -8 -9 -10 -11 0
1 5 -6 7 8 9 10 11 0
1 5 -6 7 8 9 -10 -11 0
1 5 -6 7 8 -9 10 -11 0
1 5 -6 7 8 -9 -10 11 0
1 5 -6 7 -8 9 10 -11 0
1 5 -6 7 -8 9 -10 11 0
1 5 -6 7 -8 -9 10 11 0
1 5 -6 7 -8 -9 -10 -11 0
1 5 -6 -7 8 9 10 -11 0
1 5 -6 -7 8 9 -10 11 0
1 5 -6 -7 8 -9 10 11 0
1 5 -6 -7 8 -9 -10 -11 0
1 5 -6 -7 -8 9 10 11 0
1 5 -6 -7 -8 9 -10 -11 0
1 5 -6 -7 -8 -9 10 -11 0
1 5 -6 -7 -8 -9 -10 11 0
1 -5 6 7 8 9 10 11 0
1 -5 6 7 8 9 -10 -11 0
1 -5 6 7 8 -9 10 -11 0
1 -5 6 7 8 -9 -10 11 0
1 -5 6 7 -8 9 10 -11 0
1 -5 6 7 -8 9 -10 11 0
1 -5 6 7 -8 -9 10 11 0
1 -5 6 7 -8 -9 -10 -11 0
1 -5 6 -7 8 9 10 -11 0
1 -5 6 -7 8 9 -10 11 0
1 -5 6 -7 8 -9 10 11 0
1 -5 6 -7 8 -9 -10 -11 0
1 -5 6 -7 -8 9 10 11 0
1 -5 6 -7 -8 9 -10 -11 0
1 -5 6 -7 -8 -9 10 -11 0
1 -5 6 -7 -8 -9 -10 11 0
1 -5 -6 7 8 9 10 -11 0
1 -5 -6 7 8 9 -10 11 0
1 -5 -6 7 8 -9 10 11 0
1 -5 -6 7 8 -9 -10 -11 0
1 -5 -6 7 -8 9 10 11 0
1 -5 -6 7 -8 9 -10 -11 0
1 -5 -6 7 -8 -9 10 -11 0
1 -5 -6 7 -8 -9 -10 11 0
1 -5 -6 -7 8 9 10 11 0
1 -5 -6 -7 8 9 -10 -11 0
1 -5 -6 -7 8 -9 10 -11 0
1 -5 -6 -7 8 -9 -10 11 0
1 -5 -6 -7 -8 9 10 -11 0
1 -5 -6 -7 -8 9 -10 11 0
1 -5 -6 -7 -8 -9 10 11 0
1 -5 -6 -7 -8 -9 -10 -11 0
-1 5 6 7 8 9 10 11 0
-1 5 6 7 8 9 -10 -11 0
-1 5 6 7 8 -9 10 -11 0
-1 5 6 7 8 -9 -10 11 0
-1 5 6 7 -8 9 10 -11 0
-1 5 6 7 -8 9 -10 11 0
-1 5 6 7 -8 -9 10 11 0
-1 5 6 7 -8 -9 -10 -11 0
-1 5 6 -7 8 9 10 -11 0
-1 5 6 -7 8 9 -10 11 0
-1 5 6 -7 8 -9 10 11 0
-1 5 6 -7 8 -9 -10 -11 0
-1 5 6 -7 -8 9 10 11 0
-1 5 6 -7 -8 9 -10 -11 0
-1 5 6 -7 -8 -9 10 -11 0
-1 5 6 -7 -8 -9 -10 11 0
-1 5 -6 7 8 9 10 -11 0
-1 5 -6 7 8 9 -10 11 0
-1 5 -6 7 8 -9 10 11 0
-1 5 -6 7 8 -9 -10 -11 0
-1 5 -6 7 -8 9 10 11 0
-1 5 -6 7 -8 9 -10 -11 0
-1 5 -6 7 -8 -9 10 -11 0
-1 5 -6 7 -8 -9 -10 11 0
-1 5 -6 -7 8 9 10 11 0
-1 5 -6 -7 8 9 -10 -11 0
-1 5 -6 -7 8 -9 10 -11 0
-1 5 -6 -7 8 -9 -10 11 0
-1 5 -6 -7 -8 9 10 -11 0
-1 5 -6 -7 -8 9 -10 11 0
-1 5 -6 -7 -8 -9 10 11 0
-1 5 -6 -7 -8 -9 -10 -11 0
-1 -5 6 7 8 9 10 -11 0
-1 -5 6 7 8 9 -10 11 0
-1 -5 6 7 8 -9 10 11 0
-1 -5 6 7 8 -9 -10 -11 0
-1 -5 6 7 -8 9 10 11 0
-1 -5 6 7 -8 9 -10 -11 0
-1 -5 6 7 -8 -9 10 -11 0
-1 -5 6 7 -8 -9 -10 11 0
-1 -5 6 -7 8 9 10 11 0
-1 -5 6 -7 8 9 -10 -11 0
-1 -5 6 -7 8 -9 10 -11 0
-1 -5 6 -7 8 -9 -10 11 0
-1 -5 6 -7 -8 9 10 -11 0
-1 -5 6 -7 -8 9 -10 11 0
-1 -5 6 -7 -8 -9 10 11 0
-1 -5 6 -7 -8 -9 -10 -11 0
-1 -5 -6 7 8 9 10 11 0
-1 -5 -6 7 8 9 -10 -11 0
-1 -5 -6 7 8 -9 10 -11 0
-1 -5 -6 7 8 -9 -10 11 0
-1 -5 -6 7 -8 9 10 -11 0
-1 -5 -6 7 -8 9 -10 11 0
-1 -5 -6 7 -8 -9 10 11 0
-1 -5 -6 7 -8 -9 -10 -11 0
-1 -5 -6 -7 8 9 10 -11 0
-1 -5 -6 -7 8 9 -10 11 0
-1 -5 -6 -7 8 -9 10 11 0
-1 -5 -6 -7 8 -9 -10 -11 0
-1 -5 -6 -7 -8 9 10 11 0
-1 -5 -6 -7 -8 9 -10 -11 0
-1 -5 -6 -7 -8 -9 10 -11 0
-1 -5 -6 -7 -8 -9 -10 11 0
2 12 13 -14 0
2 12 -13 14 0
2 -12 13 14 0
2 -12 -13 -14 0
-2 12 13 14 0
-2 12 -13 -14 0
-2 -12 13 -14 0
-2 -12 -13 14 0
5 12 15 16 17 -18 0
5 12 15 16 -17 18 0
5 12 15 -16 17 18 0
5 12 15 -16 -17 -18 0
5 12 -15 16 17 18 0
5 12 -15 16 -17 -18 0
5 12 -15 -16 17 -18 0
5 12 -15 -16 -17 18 0
5 -12 15 16 17 18 0
5 -12 15 16 -17 -18 0
5 -12 15 -16 17 -18 0
5 -12 15 -16 -17 18 0
5 -12 -15 16 17 -18 0
5 -12 -15 16 -17 18 0
5 -12 -15 -16 17 18 0
5 -12 -15 -16 -17 -18 0
-5 12 15 16 17 18 0
-5 12 15 16 -17 -18 0
-5 12 15 -16 17 -18 0
-5 12 15 -16 -17 18 0
-5 12 -15 16 17 -18 0
-5 12 -15 16 -17 18 0
-5 12 -15 -16 17 18 0
-5 12 -15 -16 -17 -18 0
-5 -12 15 16 17 -18 0
-5 -12 15 16 -17 18 0
-5 -12 15 -16 17 18 0
-5 -12 15 -16 -17 -18 0
-5 -12 -15 16 17 18 0
-5 -12 -15 16 -17 -18 0
-5 -12 -15 -16 17 -18 0
-5 -12 -15 -16 -17 18 0
6 13 15 19 20 21 -22 0
6 13 15 19 20 -21 22 0
6 13 15 19 -20 21 22 0
6 13 15 19 -20 -21 -22 0
6 13 15 -19 20 21 22 0
6 13 15 -19 20 -21 -22 0
6 13 15 -19 -20 21 -22 0
6 13 15 -19 -20 -21 22 0
6 13 -15 19 20 21 22 0
6 13 -15 19 20 -21 -22 0
6 13 -15 19 -20 21 -22 0
6 13 -15 19 -20 -21 22 0
6 13 -15 -19 20 21 -22 0
6 13 -15 -19 20 -21 22 0
6 13 -15 -19 -20 21 22 0
6 13 -15 -19 -20 -21 -22 0
6 -13 15 19 20 21 22 0
6 -13 15 19 20 -21 -22 0
6 -13 15 19 -20 21 -22 0
6 -13 15 19 -20 -21 22 0
6 -13 15 -19 20 21 -22 0
6 -13 15 -19 20 -21 22 0
6 -13 15 -19 -20 21 22 0
6 -13 15 -19 -20 -21 -22 0
6 -13 -15 19 20 21 -22 0
6 -13 -15 19 20 -21 22 0
6 -13 -15 19 -20 21 22 0
6 -13 -15 19 -20 -21 -22 0
6 -13 -15 -19 20 21 22 0
6 -13 -15 -19 20 -21 -22 0
6 -13 -15 -19 -20 21 -22 0
6 -13 -15 -19 -20 -21 22 0
-6 13 15 19 20 21 22 0
-6 13 15 19 20 -21 -22 0
-6 13 15 19 -20 21 -22 0
-6 13 15 19 -20 -21 22 0
-6 13 15 -19 20 21 -22 0
-6 13 15 -19 20 -21 22 0
-6 13 15 -19 -20 21 22 0
-6 13 15 -19 -20 -21 -22 0
-6 13 -15 19 20 21 -22 0
-6 13 -15 19 20 -21 22 0
-6 13 -15 19 -20 21 22 0
-6 13 -15 19 -20 -21 -22 0
-6 13 -15 -19 20 21 22 0
-6 13 -15 -19 20 -21 -22 0
-6 13 -15 -19 -20 21 -22 0
-6 13 -15 -19 -20 -21 22 0
-6 -13 15 19 20 21 -22 0
-6 -13 15 19 20 -21 22 0
-6 -13 15 19 -20 21 22 0
-6 -13 15 19 -20 -21 -22 0
-6 -13 15 -19 20 21 22 0
-6 -13 15 -19 20 -21 -22 0
-6 -13 15 -19 -20 21 -22 0
-6 -13 15 -19 -20 -21 22 0
-6 -13 -15 19 20 21 22 0
-6 -13 -15 19 20 -21 -22 0
-6 -13 -15 19 -20 21 -22 0
-6 -13 -15 19 -20 -21 22 0
-6 -13 -15 -19 20 21 -22 0
-6 -13 -15 -19 20 -21 22 0
-6 -13 -15 -19 -20 21 22 0
-6 -13 -15 -19 -20 -21 -22 0
7 16 19 23 24 -25 0
7 16 19 23 -24 25 0
7 16 19 -23 24 25 0
7 16 19 -23 -24 -25 0
7 16 -19 23 24 25 0
7 16 -19 23 -24 -25 0
7 16 -19 -23 24 -25 0
7 16 -19 -23 -24 25 0
7 -16 19 23 24 25 0
7 -16 19 23 -24 -25 0
7 -16 19 -23 24 -25 0
7 -16 19 -23 -24 25 0
7 -16 -19 23 24 -25 0
7 -16 -19 23 -24 25 0
7 -16 -19 -23 24 25 0
7 -16 -19 -23 -24 -25 0
-7 16 19 23 24 25 0
-7 16 19 23 -24 -25 0
-7 16 19 -23 24 -25 0
-7 16 19 -23 -24 25 0
-7 16 -19 23 24 -25 0
-7 16 -19 23 -24 25 0
-7 16 -19 -23 24 25 0
-7 16 -19 -23 -24 -25 0
-7 -16 19 23 24 -25 0
-7 -16 19 23 -24 25 0
-7 -16 19 -23 24 25 0
-7 -16 19 -23 -24 -25 0
-7 -16 -19 23 24 25 0
-7 -16 -19 23 -24 -25 0
-7 -16 -19 -23 24 -25 0
-7 -16 -19 -23 -24 25 0
8 14 23 26 -27 0
8 14 23 -26 27 0
8 14 -23 26 27 0
8 14 -23 -26 -27 0
8 -14 23 26 27 0
8 -14 23 -26 -27 0
8 -14 -23 26 -27 0
8 -14 -23 -26 27 0
-8 14 23 26 27 0
-8 14 23 -26 -27 0
-8 14 -23 26 -27 0
-8 14 -23 -26 27 0
-8 -14 23 26 -27 0
-8 -14 23 -26 27 0
-8 -14 -23 26 27 0
-8 -14 -23 -26 -27 0
9 17 20 24 28 -29 0
9 17 20 24 -28 29 0
9 17 20 -24 28 29 0
9 17 20 -24 -28 -29 0
9 17 -20 24 28 29 0
9 17 -20 24 -28 -29 0
9 17 -20 -24 28 -29 0
9 17 -20 -24 -28 29 0
9 -17 20 24 28 29 0
9 -17 20 24 -28 -29 0
9 -17 20 -24 28 -29 0
9 -17 20 -24 -28 29 0
9 -17 -20 24 28 -29 0
9 -17 -20 24 -28 29 0
9 -17 -20 -24 28 29 0
9 -17 -20 -24 -28 -29 0
-9 17 20 24 28 29 0
-9 17 20 24 -28 -29 0
-9 17 20 -24 28 -29 0
-9 17 20 -24 -28 29 0
-9 17 -20 24 28 -29 0
-9 17 -20 24 -28 29 0
-9 17 -20 -24 28 29 0
-9 17 -20 -24 -28 -29 0
-9 -17 20 24 28 -29 0
-9 -17 20 24 -28 29 0
-9 -17 20 -24 28 29 0
-9 -17 20 -24 -28 -29 0
-9 -17 -20 24 28 29 0
-9 -17 -20 24 -28 -29 0
-9 -17 -20 -24 28 -29 0
-9 -17 -20 -24 -28 29 0
3 10 21 26 28 -30 0
3 10 21 26 -28 30 0
3 10 21 -26 28 30 0
3 10 21 -26 -28 -30 0
3 10 -21 26 28 30 0
3 10 -21 26 -28 -30 0
3 10 -21 -26 28 -30 0
3 10 -21 -26 -28 30 0
3 -10 21 26 28 30 0
3 -10 21 26 -28 -30 0
3 -10 21 -26 28 -30 0
3 -10 21 -26 -28 30 0
3 -10 -21 26 28 -30 0
3 -10 -21 26 -28 30 0
3 -10 -21 -26 28 30 0
3 -10 -21 -26 -28 -30 0
-3 10 21 26 28 30 0
-3 10 21 26 -28 -30 0
-3 10 21 -26 28 -30 0
-3 10 21 -26 -28 30 0
-3 10 -21 26 28 -30 0
-3 10 -21 26 -28 30 0
-3 10 -21 -26 28 30 0
-3 10 -21 -26 -28 -30 0
-3 -10 21 26 28 -30 0
-3 -10 21 26 -28 30 0
-3 -10 21 -26 28 30 0
-3 -10 21 -26 -28 -30 0
-3 -10 -21 26 28 30 0
-3 -10 -21 26 -28 -30 0
-3 -10 -21 -26 28 -30 0
-3 -10 -21 -26 -28 30 0
4 11 18 22 25 27 29 -30 0
4 11 18 22 25 27 -29 30 0
4 11 18 22 25 -27 29 30 0
4 11 18 22 25 -27 -29 -30 0
4 11 18 22 -25 27 29 30 0
4 11 18 22 -25 27 -29 -30 0
4 11 18 22 -25 -27 29 -30 0
4 11 18 22 -25 -27 -29 30 0
4 11 18 -22 25 27 29 30 0
4 11 18 -22 25 27 -29 -30 0
4 11 18 -22 25 -27 29 -30 0
4 11 18 -22 25 -27 -29 30 0
4 11 18 -22 -25 27 29 -30 0
4 11 18 -22 -25 27 -29 30 0
4 11 18 -22 -25 -27 29 30 0
4 11 18 -22 -25 -27 -29 -30 0
4 11 -18 22 25 27 29 30 0
4 11 -18 22 25 27 -29 -30 0
4 11 -18 22 25 -27 29 -30 0
4 11 -18 22 25 -27 -29 30 0
4 11 -18 22 -25 27 29 -30 0
4 11 -18 22 -25 27 -29 30 0
4 11 -18 22 -25 -27 29 30 0
4 11 -18 22 -25 -27 -29 -30 0
4 11 -18 -22 25 27 29 -30 0
4 11 -18 -22 25 27 -29 30 0
4 11 -18 -22 25 -27 29 30 0
4 11 -18 -22 25 -27 -29 -30 0
4 11 -18 -22 -25 27 29 30 0
4 11 -18 -22 -25 27 -29 -30 0
4 11 -18 -22 -25 -27 29 -30 0
4 11 -18 -22 -25 -27 -29 30 0
4 -11 18 22 25 27 29 30 0
4 -11 18 22 25 27 -29 -30 0
4 -11 18 22 25 -27 29 -30 0
4 -11 18 22 25 -27 -29 30 0
4 -11 18 22 -25 27 29 -30 0
4 -11 18 22 -25 27 -29 30 0
4 -11 18 22 -25 -27 29 30 0
4 -11 18 22 -25 -27 -29 -30 0
4 -11 18 -22 25 27 29 -30 0
4 -11 18 -22 25 27 -29 30 0
4 -11 18 -22 25 -27 29 30 0
4 -11 18 -22 25 -27 -29 -30 0
4 -11 18 -22 -25 27 29 30 0
4 -11 18 -22 -25 27 -29 -30 0
4 -11 18 -22 -25 -27 29 -30 0
4 -11 18 -22 -25 -27 -29 30 0
4 -11 -18 22 25 27 29 -30 0
4 -11 -18 22 25 27 -29 30 0
4 -11 -18 22 25 -27 29 30 0
4 -11 -18 22 25 -27 -29 -30 0
4 -11 -18 22 -25 27 29 30 0
4 -11 -18 22 -25 27 -29 -30 0
4 -11 -18 22 -25 -27 29 -30 0
4 -11 -18 22 -25 -27 -29 30 0
4 -11 -18 -22 25 27 29 30 0
4 -11 -18 -22 25 27 -29 -30 0
4 -11 -18 -22 25 -27 29 -30 0
4 -11 -18 -22 25 -27 -29 30 0
4 -11 -18 -22 -25 27 29 -30 0
4 -11 -18 -22 -25 27 -29 30 0
4 -11 -18 -22 -25 -27 29 30 0
4 -11 -18 -22 -25 -27 -29 -30 0
-4 11 18 22 25 27 29 30 0
-4 11 18 22 25 27 -29 -30 0
-4 11 18 22 25 -27 29 -30 0
-4 11 18 22 25 -27 -29 30 0
-4 11 18 22 -25 27 29 -30 0
-4 11 18 22 -25 27 -29 30 0
-4 11 18 22 -25 -27 29 30 0
-4 11 18 22 -25 -27 -29 -30 0
-4 11 18 -22 25 27 29 -30 0
-4 11 18 -22 25 27 -29 30 0
-4 11 18 -22 25 -27 29 30 0
-4 11 18 -22 25 -27 -29 -30 0
-4 11 18 -22 -25 27 29 30 0
-4 11 18 -22 -25 27 -29 -30 0
-4 11 18 -22 -25 -27 29 -30 0
-4 11 18 -22 -25 -27 -29 30 0
-4 11 -18 22 25 27 29 -30 0
-4 11 -18 22 25 27 -29 30 0
-4 11 -18 22 25 -27 29 30 0
-4 11 -18 22 25 -27 -29 -30 0
-4 11 -18 22 -25 27 29 30 0
-4 11 -18 22 -25 27 -29 -30 0
-4 11 -18 22 -25 -27 29 -30 0
-4 11 -18 22 -25 -27 -29 30 0
-4 11 -18 -22 25 27 29 30 0
-4 11 -18 -22 25 27 -29 -30 0
-4 11 -18 -22 25 -27 29 -30 0
-4 11 -18 -22 25 -27 -29 30 0
-4 11 -18 -22 -25 27 29 -30 0
-4 11 -18 -22 -25 27 -29 30 0
-4 11 -18 -22 -25 -27 29 30 0
-4 11 -18 -22 -25 -27 -29 -30 0
-4 -11 18 22 25 27 29 -30 0
-4 -11 18 22 25 27 -29 30 0
-4 -11 18 22 25 -27 29 30 0
-4 -11 18 22 25 -27 -29 -30 0
-4 -11 18 22 -25 27 29 30 0
-4 -11 18 22 -25 27 -29 -30 0
-4 -11 18 22 -25 -27 29 -30 0
-4 -11 18 22 -25 -27 -29 30 0
-4 -11 18 -22 25 27 29 30 0
-4 -11 18 -22 25 27 -29 -30 0
-4 -11 18 -22 25 -27 29 -30 0
-4 -11 18 -22 25 -27 -29 30 0
-4 -11 18 -22 -25 27 29 -30 0
-4 -11 18 -22 -25 27 -29 30 0
-4 -11 18 -22 -25 -27 29 30 0
-4 -11 18 -22 -25 -27 -29 -30 0
-4 -11 -18 22 25 27 29 30 0
-4 -11 -18 22 25 27 -29 -30 0
-4 -11 -18 22 25 -27 29 -30 0
-4 -11 -18 22 25 -27 -29 30 0
-4 -11 -18 22 -25 27 29 -30 0
-4 -11 -18 22 -25 27 -29 30 0
-4 -11 -18 22 -25 -27 29 30 0
-4 -11 -18 22 -25 -27 -29 -30 0
-4 -11 -18 -22 25 27 29 -30 0
-4 -11 -18 -22 25 27 -29 30 0
-4 -11 -18 -22 25 -27 29 30 0
-4 -11 -18 -22 25 -27 -29 -30 0
-4 -11 -18 -22 -25 27 29 30 0
-4 -11 -18 -22 -25 27 -29 -30 0
-4 -11 -18 -22 -25 -27 29 -30 0
-4 -11 -18 -22 -25 -27 -29 30 0